<number of tasks>
50

<cycle time>
1000

<order strength>
0.599


<task times>
1 632
2 357
3 530
4 643
5 349
6 398
7 483
8 363
9 382
10 433
11 486
12 594
13 493
14 594
15 448
16 325
17 609
18 416
19 558
20 594
21 584
22 426
23 441
24 501
25 539
26 383
27 758
28 434
29 484
30 378
31 681
32 522
33 422
34 222
35 354
36 275
37 531
38 640
39 502
40 523
41 385
42 570
43 618
44 525
45 500
46 371
47 448
48 274
49 539
50 346

<precedence relations>
1,8
2,8
3,8
4,8
5,42
6,25
7,9
8,10
8,11
8,12
8,13
8,14
8,15
8,16
9,16
9,18
10,19
10,21
11,18
12,40
12,41
13,34
15,19
15,22
16,17
16,32
17,25
18,21
18,22
18,24
19,20
19,23
19,24
20,25
21,25
22,25
23,26
23,34
24,26
24,27
24,41
25,28
25,29
25,30
25,31
26,32
26,36
26,40
27,43
29,33
29,35
30,36
30,37
31,34
31,43
33,42
34,42
35,38
36,38
36,44
37,39
37,40
37,41
37,42
38,42
40,43
40,45
41,44
42,46
42,47
42,48
42,49
42,50

<end>
